* ENCODING=ISO-8859-1
NAME          CPLEX
ROWS
 N  obj1    
 G  c1      
 G  c2      
 G  c3      
 G  c4      
 G  c5      
 G  c6      
 G  c7      
 G  c8      
 G  c9      
 G  c10     
 G  c11     
 G  c12     
 G  c13     
 G  c14     
 G  c15     
 G  c16     
 G  c17     
 G  c18     
 G  c19     
 G  c20     
 G  c21     
 G  c22     
 G  c23     
 G  c24     
 G  c25     
 G  c26     
 G  c27     
 G  c28     
 G  c29     
 G  c30     
COLUMNS
    MARK0000  'MARKER'                 'INTORG'
    x1        obj1                            1
    x2        obj1                            1
    x2        c17                           184
    x2        c24                           487
    x2        c25                           613
    x3        obj1                            1
    x3        c9                            501
    x3        c10                           345
    x3        c18                           249
    x4        obj1                            1
    x4        c4                            918
    x4        c10                           682
    x4        c11                           876
    x4        c15                           574
    x4        c20                           101
    x4        c30                           389
    x5        obj1                            1
    x5        c11                           524
    x5        c13                           247
    x5        c17                           214
    x6        obj1                            1
    x6        c18                           466
    x6        c25                           239
    x6        c28                           149
    x6        c29                           296
    x7        obj1                            1
    x7        c5                            401
    x7        c17                           583
    x7        c30                           689
    x8        obj1                            1
    x8        c2                            656
    x8        c11                           246
    x8        c21                           942
    x9        obj1                            1
    x9        c17                           484
    x9        c21                           568
    x9        c29                           311
    x10       obj1                            1
    x10       c5                            486
    x10       c7                            340
    x10       c29                           579
    x11       obj1                            1
    x11       c16                           171
    x11       c19                           393
    x11       c20                           322
    x11       c28                           618
    x11       c29                           545
    x12       obj1                            1
    x12       c16                           829
    x12       c18                           369
    x13       obj1                            1
    x13       c13                           994
    x14       obj1                            1
    x14       c3                            115
    x14       c26                           194
    x14       c30                           671
    x15       obj1                            1
    x16       obj1                            1
    x16       c6                            982
    x16       c14                           339
    x16       c18                           217
    x16       c22                           601
    x16       c23                           475
    x16       c28                           838
    x17       obj1                            1
    x17       c8                            484
    x18       obj1                            1
    x18       c10                           807
    x18       c30                           327
    x19       obj1                            1
    x19       c4                            327
    x19       c12                           511
    x20       obj1                            1
    x20       c26                           447
    x21       obj1                            1
    x21       c5                            873
    x21       c6                            211
    x21       c12                           399
    x21       c17                           711
    x21       c21                           947
    x21       c22                           980
    x21       c30                           125
    x22       obj1                            1
    x22       c14                           152
    x22       c15                           749
    x22       c19                           693
    x22       c27                           929
    x22       c28                           203
    x23       obj1                            1
    x23       c9                            117
    x23       c10                           224
    x23       c24                           598
    x23       c26                           875
    x23       c30                           420
    x24       obj1                            1
    x24       c2                            324
    x24       c9                            680
    x24       c20                           198
    x24       c21                           239
    x24       c30                           788
    x25       obj1                            1
    x25       c2                            425
    x25       c6                            175
    x25       c8                            112
    x26       obj1                            1
    x26       c18                           940
    x27       obj1                            1
    x27       c1                            660
    x27       c10                           485
    x28       obj1                            1
    x28       c1                            611
    x28       c2                            733
    x28       c15                           706
    x28       c28                           806
    x29       obj1                            1
    x29       c22                           686
    x29       c26                           174
    x29       c30                           116
    x30       obj1                            1
    x31       obj1                            1
    x31       c4                            378
    x32       obj1                            1
    x33       obj1                            1
    x33       c10                           597
    x33       c13                           326
    x34       obj1                            1
    x34       c7                            481
    x34       c24                           581
    x34       c25                           618
    x35       obj1                            1
    x35       c1                            984
    x36       obj1                            1
    x36       c1                            590
    x36       c13                           910
    x36       c17                           576
    x36       c27                           860
    x37       obj1                            1
    x37       c10                           655
    x38       obj1                            1
    x38       c14                           306
    x39       obj1                            1
    x39       c2                            630
    x39       c11                           487
    x39       c12                           232
    x39       c20                           700
    x40       obj1                            1
    x40       c14                           693
    x41       obj1                            1
    x41       c4                            540
    x41       c5                            547
    x41       c6                            811
    x41       c19                           825
    x41       c27                           648
    x42       obj1                            1
    x42       c14                           224
    x42       c16                           786
    x42       c18                           903
    x43       obj1                            1
    x43       c8                            998
    x43       c20                           104
    x44       obj1                            1
    x44       c13                           211
    x44       c18                           849
    x44       c22                           496
    x44       c25                           384
    x45       obj1                            1
    x45       c12                           318
    x46       obj1                            1
    x47       obj1                            1
    x47       c23                           379
    x47       c27                           720
    x48       obj1                            1
    x48       c4                            135
    x48       c17                           658
    x48       c26                           698
    x49       obj1                            1
    x49       c4                            899
    x49       c26                           502
    x49       c28                           224
    x50       obj1                            1
    x50       c12                           203
    x50       c20                           312
    x50       c26                           176
    x50       c30                           865
    x51       obj1                            1
    x51       c5                            916
    x51       c7                            943
    x51       c9                            650
    x51       c19                           976
    x51       c21                           787
    x52       obj1                            1
    x53       obj1                            1
    x53       c9                            570
    x53       c17                           388
    x54       obj1                            1
    x54       c25                           266
    x54       c28                           702
    x55       obj1                            1
    x55       c4                            376
    x55       c6                            532
    x55       c9                            257
    x55       c12                           658
    x55       c23                           686
    x56       obj1                            1
    x56       c3                            782
    x56       c10                           480
    x56       c20                           807
    x56       c25                           159
    x57       obj1                            1
    x57       c3                            469
    x57       c6                            629
    x57       c9                            465
    x57       c10                           358
    x57       c11                           788
    x57       c18                           124
    x58       obj1                            1
    x58       c1                            632
    x58       c3                            464
    x58       c14                           475
    x59       obj1                            1
    x59       c2                            618
    x59       c7                            255
    x59       c13                           697
    x59       c14                           411
    x59       c17                           930
    x59       c21                           638
    x59       c22                           394
    x59       c25                           120
    x59       c26                           416
    x60       obj1                            1
    x60       c4                            366
    x60       c20                           918
    x60       c23                           647
    MARK0001  'MARKER'                 'INTEND'
RHS
    rhs       c1                           1739
    rhs       c2                           1693
    rhs       c3                            915
    rhs       c4                           1970
    rhs       c5                           1612
    rhs       c6                           1670
    rhs       c7                           1010
    rhs       c8                            797
    rhs       c9                           1620
    rhs       c10                          2317
    rhs       c11                          1461
    rhs       c12                          1161
    rhs       c13                          1693
    rhs       c14                          1300
    rhs       c15                          1015
    rhs       c16                           893
    rhs       c17                          2364
    rhs       c18                          2059
    rhs       c19                          1444
    rhs       c20                          1731
    rhs       c21                          2061
    rhs       c22                          1579
    rhs       c23                          1094
    rhs       c24                           833
    rhs       c25                          1200
    rhs       c26                          1741
    rhs       c27                          1579
    rhs       c28                          1770
    rhs       c29                           866
    rhs       c30                          2195
BOUNDS
 LI bnd       x1        0
 LI bnd       x2        0
 LI bnd       x3        0
 LI bnd       x4        0
 LI bnd       x5        0
 LI bnd       x6        0
 LI bnd       x7        0
 LI bnd       x8        0
 LI bnd       x9        0
 LI bnd       x10       0
 LI bnd       x11       0
 LI bnd       x12       0
 LI bnd       x13       0
 LI bnd       x14       0
 LI bnd       x15       0
 LI bnd       x16       0
 LI bnd       x17       0
 LI bnd       x18       0
 LI bnd       x19       0
 LI bnd       x20       0
 LI bnd       x21       0
 LI bnd       x22       0
 LI bnd       x23       0
 LI bnd       x24       0
 LI bnd       x25       0
 LI bnd       x26       0
 LI bnd       x27       0
 LI bnd       x28       0
 LI bnd       x29       0
 LI bnd       x30       0
 LI bnd       x31       0
 LI bnd       x32       0
 LI bnd       x33       0
 LI bnd       x34       0
 LI bnd       x35       0
 LI bnd       x36       0
 LI bnd       x37       0
 LI bnd       x38       0
 LI bnd       x39       0
 LI bnd       x40       0
 LI bnd       x41       0
 LI bnd       x42       0
 LI bnd       x43       0
 LI bnd       x44       0
 LI bnd       x45       0
 LI bnd       x46       0
 LI bnd       x47       0
 LI bnd       x48       0
 LI bnd       x49       0
 LI bnd       x50       0
 LI bnd       x51       0
 LI bnd       x52       0
 LI bnd       x53       0
 LI bnd       x54       0
 LI bnd       x55       0
 LI bnd       x56       0
 LI bnd       x57       0
 LI bnd       x58       0
 LI bnd       x59       0
 LI bnd       x60       0
ENDATA
